
Gurobi 9.5.1 (linux64) logging started Wed Mar  9 18:05:37 2022

Set parameter LogFile to value "../results/logs/log_2022_03_09_17_57.csv_11_35.log"
Set parameter Method to value 3
Gurobi Optimizer version 9.5.1 build v9.5.1rc2 (linux64)
Thread count: 8 physical cores, 8 logical processors, using up to 8 threads
Optimize a model with 79 rows, 9882 columns and 6345 nonzeros
Model fingerprint: 0x3e30b528
Variable types: 4941 continuous, 4941 integer (4941 binary)
Coefficient statistics:
  Matrix range     [1e+00, 1e+01]
  Objective range  [1e+00, 1e+00]
  Bounds range     [1e+00, 1e+00]
  RHS range        [1e+00, 4e+01]
Found heuristic solution: objective -0.0000000
Presolve removed 66 rows and 9861 columns
Presolve time: 0.00s
Presolved: 13 rows, 21 columns, 65 nonzeros
Extracted 10 lazy constraints
Variable types: 8 continuous, 13 integer (12 binary)

Root relaxation: objective 1.600000e+01, 2 iterations, 0.00 seconds (0.00 work units)

    Nodes    |    Current Node    |     Objective Bounds      |     Work
 Expl Unexpl |  Obj  Depth IntInf | Incumbent    BestBd   Gap | It/Node Time

     0     0   11.26515    0    3   -0.00000   11.26515      -     -    0s
H    0     0                       8.0000000   11.26515  40.8%     -    0s
H    0     0                       9.0000000   10.20000  13.3%     -    0s
     0     0   10.20000    0    2    9.00000   10.20000  13.3%     -    0s

Cutting planes:
  Gomory: 1
  Implied bound: 1
  MIR: 2
  Relax-and-lift: 1
  Lazy constraints: 9

Explored 1 nodes (22 simplex iterations) in 0.01 seconds (0.00 work units)
Thread count was 8 (of 8 available processors)

Solution count 3: 9 8 -0 

Optimal solution found (tolerance 1.00e-04)
Best objective 9.000000000000e+00, best bound 9.000000000000e+00, gap 0.0000%
